
--- Job basics.gms Start 10/24/25 13:48:33 51.2.0 56392656 WEX-WEI x86 64bit/MS Windows
--- Applying:
    C:\GAMS\51\gmsprmNT.txt
    C:\Users\vanqu\OneDrive\Documents\GAMS\gamsconfig.yaml
--- GAMS Parameters defined
    Input C:\Users\vanqu\OneDrive\Desktop\Thesis\honours-thesis\basics.gms
    PageSize 0
    ScrDir C:\Users\vanqu\OneDrive\Desktop\Thesis\honours-thesis\outputs\225a\
    SysDir C:\GAMS\51\
    LogOption 3
    AppendLog 1
    ErrMsg 1
    ErrorLog 99
    IDE 1
    LstTitleLeftAligned 1
Licensee: GAMS Demo, for EULA and demo limitations see   G250826+0003Cc-GEN
          https://www.gams.com/latest/docs/UG%5FLicense.html         DC0000
          C:\GAMS\51\gamslice.txt
          v:2                                                              
          Demo license for demonstration and instructional purposes only
System information: 14 physical cores and 16 Gb physical memory detected
GAMS 51.2.0   Copyright (C) 1987-2025 GAMS Development. All rights reserved
--- Starting compilation
--- basics.gms(204) 3 Mb
--- Starting execution: elapsed 0:00:00.009
--- basics.gms(169) 4 Mb
--- Generating MIP model plan
--- basics.gms(170) 4 Mb
---   160 rows  106 columns  418 non-zeroes
---   6 discrete-columns
--- Range statistics (absolute non-zero finite values)
--- RHS       [min, max] : [ 1.000E+01, 1.200E+02] - Zero values observed as well
--- Bound     [min, max] : [ 1.000E+00, 1.000E+00] - Zero values observed as well
--- Matrix    [min, max] : [ 1.000E+00, 1.000E+17]
--- Executing CPLEX (Solvelink=2): elapsed 0:00:00.013

IBM ILOG CPLEX   51.2.0 56392656 Sep 29, 2025          WEI x86 64bit/MS Window

*** This solver runs with a demo license. No commercial use.
--- GMO setup time: 0.00s
--- GMO memory 0.53 Mb (peak 0.53 Mb)
--- Dictionary memory 0.00 Mb
--- Cplex 22.1.2.0 link memory 0.00 Mb (peak 0.02 Mb)
--- Starting Cplex

Version identifier: 22.1.2.0 | 2024-11-25 | 0edbb82fd
CPXPARAM_Advance                                 0
CPXPARAM_MIP_Display                             4
CPXPARAM_MIP_Pool_Capacity                       0
CPXPARAM_MIP_Tolerances_AbsMIPGap                0
CPXPARAM_MIP_Tolerances_MIPGap                   0
Generic callback                                 0x50
Found incumbent of value 3.9000000e+19 after 0.00 sec. (0.01 ticks)
Tried aggregator 2 times.
MIP Presolve eliminated 66 rows and 16 columns.
Aggregator did 18 substitutions.
Reduced MIP has 75 rows, 72 columns, and 213 nonzeros.
Reduced MIP has 3 binaries, 0 generals, 0 SOSs, and 0 indicators.
Presolve time = 0.00 sec. (0.26 ticks)
Probing time = 0.00 sec. (0.01 ticks)
Tried aggregator 1 time.
Detecting symmetries...
Reduced MIP has 75 rows, 72 columns, and 213 nonzeros.
Reduced MIP has 3 binaries, 0 generals, 0 SOSs, and 0 indicators.
Presolve time = 0.00 sec. (0.11 ticks)
Probing time = 0.00 sec. (0.01 ticks)
MIP emphasis: balance optimality and feasibility.
MIP search method: dynamic search.
Parallel mode: deterministic, using up to 20 threads.
Parallel mode: deterministic, using up to 3 threads for parallel tasks at root LP.
Initializing dual steep norms . . .

Iteration log . . .
Iteration:     1   Dual objective     =             0.000000
Root relaxation solution time = 0.00 sec. (0.21 ticks)

        Nodes                                         Cuts/
   Node  Left     Objective  IInf  Best Integer    Best Bound    ItCnt     Gap

*     0+    0                       3.90000e+19        0.0000           100.00%
Found incumbent of value 3.9000000e+19 after 0.00 sec. (0.68 ticks)
*     0+    0                       2.70000e+19        0.0000           100.00%
Found incumbent of value 2.7000000e+19 after 0.00 sec. (0.68 ticks)
      0     0  7439925.0000     3   2.70000e+19  7439925.0000       53  100.00%
*     0+    0                       3.00149e+07  7439925.0000            75.21%
Found incumbent of value 3.0014925e+07 after 0.00 sec. (0.72 ticks)
*     0+    0                       2.25102e+07  7439925.0000            66.95%
Found incumbent of value 2.2510175e+07 after 0.00 sec. (0.88 ticks)
      0     0   1.26596e+07     3   2.25102e+07      Cuts: 26       66   43.76%
*     0+    0                       2.10102e+07   1.26596e+07            39.75%
Found incumbent of value 2.1010175e+07 after 0.00 sec. (1.33 ticks)
      0     0   1.45299e+07     3   2.10102e+07      Cuts: 15       83   30.84%
      0     0   1.50117e+07     3   2.10102e+07      Cuts: 36       89   28.55%
*     0     0      integral     0   1.65102e+07   ZeroHalf: 1       96    0.00%
Found incumbent of value 1.6510175e+07 after 0.00 sec. (2.61 ticks)
      0     0        cutoff         1.65102e+07   1.65102e+07       96    0.00%
Elapsed time = 0.05 sec. (2.62 ticks, tree = 0.01 MB)

Mixed integer rounding cuts applied:  6
Zero-half cuts applied:  1

Root node processing (before b&c):
  Real time             =    0.05 sec. (2.62 ticks)
Parallel b&c, 20 threads:
  Real time             =    0.00 sec. (0.00 ticks)
  Sync time (average)   =    0.00 sec.
  Wait time (average)   =    0.00 sec.
                          ------------
Total (root+branch&cut) =    0.05 sec. (2.62 ticks)

--- MIP status (101): integer optimal solution.
--- Cplex Time: 0.06sec (det. 2.62 ticks)

--- Returning a primal only solution to GAMS (marginals all set to NA).
--- Fixing integer variables and solving final LP...

Version identifier: 22.1.2.0 | 2024-11-25 | 0edbb82fd
CPXPARAM_Advance                                 2
CPXPARAM_MIP_Display                             4
CPXPARAM_MIP_Pool_Capacity                       0
CPXPARAM_MIP_Tolerances_AbsMIPGap                0
CPXPARAM_MIP_Tolerances_MIPGap                   0
Tried aggregator 1 time.
LP Presolve eliminated 97 rows and 30 columns.
Aggregator did 11 substitutions.
Reduced LP has 51 rows, 65 columns, and 157 nonzeros.
Presolve time = 0.00 sec. (0.14 ticks)
Initializing dual steep norms . . .

Iteration log . . .
Iteration:     1   Dual objective     =      16500000.000000

--- Fixed MIP status (1): optimal.
--- Cplex Time: 0.00sec (det. 0.26 ticks)


Proven optimal solution
MIP Solution:     16510175.000000    (96 iterations, 0 nodes)
Final Solve:      16510175.000000    (16 iterations)

Best possible:    16510175.000000
Absolute gap:            0.000000
Relative gap:            0.000000

--- Reading solution for model plan
--- Executing after solve: elapsed 0:00:00.110
--- basics.gms(199) 4 Mb
*** Status: Normal completion
--- Job basics.gms Stop 10/24/25 13:48:33 elapsed 0:00:00.110
